96 100
34 27 2
18 19 1
4 11 2
35 34 1
26 26 1
7 7 1
21 7 1
19 35 1
29 5 1
27 17 1
31 11 1
2 5 1
17 30 1
27 24 1
28 7 1
27 9 1
9 4 1
21 26 1
9 21 2
35 17 1
35 9 1
30 6 1
15 25 1
33 30 1
35 27 1
15 1 1
16 18 1
24 15 1
34 13 1
19 7 1
33 6 1
3 27 1
6 34 1
27 33 1
26 9 1
12 28 1
5 27 1
3 23 1
2 24 1
26 13 1
14 21 1
19 22 1
3 35 1
21 23 1
35 25 1
24 23 1
7 25 1
16 16 1
23 27 1
13 30 1
17 10 1
7 33 1
3 2 1
2 6 1
10 6 1
13 10 1
6 3 1
33 16 1
7 21 1
31 3 1
6 28 1
21 34 1
4 5 1
32 7 1
20 14 1
33 9 1
9 24 1
3 31 1
11 15 1
5 7 1
5 15 1
8 23 2
21 27 1
28 1 1
25 33 1
21 15 1
34 24 1
26 10 1
5 4 1
25 14 1
12 24 1
10 30 1
1 6 1
18 5 1
33 24 1
31 35 1
7 19 1
11 31 1
18 8 1
34 17 1
10 29 1
12 31 1
12 16 1
29 30 1
26 20 1
9 18 1
100 100 
100 100 
100 100 
100 100 
100 100 
100 100 
100 100 
100 100 
100 100 
100 100 
100 100 
100 100 
100 100 
100 100 
100 100 
100 100 
100 100 
100 100 
100 100 
100 100 
100 100 
100 100 
100 100 
100 100 
100 100 
100 100 
100 100 
100 100 
100 100 
100 100 
100 100 
100 100 
100 100 
100 100 
100 100 
100 100 
100 100 
100 100 
100 100 
100 100 
100 100 
100 100 
100 100 
100 100 
100 100 
100 100 
100 100 
100 100 
100 100 
100 100 
100 100 
100 100 
100 100 
100 100 
100 100 
100 100 
100 100 
100 100 
100 100 
100 100 
100 100 
100 100 
100 100 
100 100 
100 100 
100 100 
100 100 
100 100 
100 100 
100 100 
100 100 
100 100 
100 100 
100 100 
100 100 
100 100 
100 100 
100 100 
100 100 
100 100 
100 100 
100 100 
100 100 
100 100 
100 100 
100 100 
100 100 
100 100 
100 100 
100 100 
100 100 
100 100 
100 100 
100 100 
100 100 
100 100 
100 100 
100 100 
100 100 
100 100 
